# LAMMPS script for cylindrical nanoparticles at 300 K

units            metal
echo 		         both
atom_style       atomic
dimension	       3

# Define boundary conditions
boundary         p p p

# Create a rectangular region for the simulation box
region           box block -10 10 0 50 -10 10 units box
create_box       1 box
#----------------------------------------------------------------------------
# Create a cylindrical region within the rectangular box
lattice fcc 3.61 
region           Cu sphere 0 25 0 10 units box
create_atoms     1 region Cu units box

#----------------------------------------------------------------------------------------

# Integration timestep
timestep         0.001
#-------------------------------------------------------------------------------------------
# Force calculations
pair_style      eam/alloy
pair_coeff      * * Cu_zhou.eam.alloy Cu 

#-----------------------------------------------------------------------------------

# Minimize to obtain the lowest energy state for the initial configuration
minimize   1.0e-4 1.0e-2 100 100

#-------------------------------------------------------------------------------

# Output - thermodynamic
thermo    100
thermo_style custom step temp vol press pe ke etotal

#-------------------------------------------------------------------------------------

# Visualize the atomic positions
dump	1 all custom 100 Cu_sphere_*.lammpstrj id type x y z 

#-----------------------------------------------------------

# Log file for thermodynamic data
log	log_Cu_300k.data

# Initial velocity of the atoms
velocity all create 300 873847 rot yes mom yes dist gaussian 

# Temperature controller; NVT heating
# Heating phase
fix	1 all nvt temp 300 300 0.1 
run     500
